words_hard_train/1021.qaiger
aag 198 24 0 1 174
2
4
12
14
18
20
32
44
56
68
80
140
148
150
154
158
162
166
170
180
188
204
220
236
396
6 2 4
8 3 5
10 7 9
16 12 14
22 19 21
24 18 20
26 23 25
28 16 26
30 29 25
34 33 3
36 32 2
38 35 37
40 31 38
42 41 37
46 45 3
48 44 2
50 47 49
52 43 50
54 53 49
58 57 3
60 56 2
62 59 61
64 55 62
66 65 61
70 69 3
72 68 2
74 71 73
76 67 74
78 77 73
82 81 3
84 80 2
86 83 85
88 79 86
90 89 85
92 10 91
94 11 90
96 93 95
98 13 15
100 99 17
102 17 27
104 103 29
106 101 105
108 30 39
110 109 41
112 106 111
114 42 51
116 115 53
118 112 117
120 54 63
122 121 65
124 118 123
126 66 75
128 127 77
130 124 129
132 78 87
134 133 89
136 130 135
138 96 136
142 140 2
144 141 3
146 143 145
152 149 151
156 152 155
160 156 159
164 160 163
168 164 167
172 168 171
174 146 173
176 147 172
178 175 177
182 180 148
184 148 150
186 185 153
190 187 189
192 186 188
194 191 193
196 182 194
198 197 193
200 153 154
202 201 157
206 203 205
208 202 204
210 207 209
212 199 210
214 213 209
216 157 158
218 217 161
222 219 221
224 218 220
226 223 225
228 215 226
230 229 225
232 161 162
234 233 165
238 235 237
240 234 236
242 239 241
244 231 242
246 245 241
248 165 166
250 249 169
252 251 13
254 250 12
256 253 255
258 247 256
260 259 255
262 169 170
264 263 173
266 265 19
268 264 18
270 267 269
272 261 270
274 273 269
276 179 275
278 178 274
280 277 279
282 139 281
284 181 149
286 285 183
288 287 100
290 289 105
292 183 195
294 293 197
296 291 295
298 288 104
300 297 299
302 300 107
304 198 211
306 305 213
308 107 110
310 309 113
312 306 310
314 303 313
316 307 311
318 315 317
320 214 227
322 321 229
324 113 116
326 325 119
328 322 326
330 319 329
332 323 327
334 331 333
336 230 243
338 337 245
340 119 122
342 341 125
344 338 342
346 335 345
348 339 343
350 347 349
352 246 257
354 353 259
356 125 128
358 357 131
360 354 358
362 351 361
364 355 359
366 363 365
368 260 271
370 369 273
372 131 134
374 373 137
376 370 374
378 367 377
380 371 375
382 379 381
384 282 383
386 382 280
388 138 386
390 385 389
392 97 137
394 392 387
396 390 395
i0 2 y2[7]
i1 2 y1[7]
i2 2 y2[5]
i3 2 y1[0]
i4 2 y2[6]
i5 2 y1[1]
i6 2 y1[2]
i7 2 y1[3]
i8 2 y1[4]
i9 2 y1[5]
i10 2 y1[6]
i11 1 x2[7]
i12 1 x2[0]
i13 1 x2[1]
i14 1 x2[2]
i15 1 x2[3]
i16 1 x2[4]
i17 1 x2[5]
i18 1 x2[6]
i19 2 y2[0]
i20 2 y2[1]
i21 2 y2[2]
i22 2 y2[3]
i23 2 y2[4]
o0 bv[0]
c
simplified
  >=
    subtract
      2 y2
      1 x2
    add
      >> 5
        2 y2
      2 y1
