words_hard_train/1021.qaiger.qdimacs
p cnf 198 523
a 70 74 75 77 79 81 83 85 0
e 1 2 3 4 5 6 7 8 9 10 11 12 13 14 15 16 17 18 19 20 21 22 23 24 25 26 27 28 29 30 31 32 33 34 35 36 37 38 39 40 41 42 43 44 45 46 47 48 49 50 51 52 53 54 55 56 57 58 59 60 61 62 63 64 65 66 67 68 69 71 72 73 76 78 80 82 84 86 87 88 89 90 91 92 93 94 95 96 97 98 99 100 101 102 103 104 105 106 107 108 109 110 111 112 113 114 115 116 117 118 119 120 121 122 123 124 125 126 127 128 129 130 131 132 133 134 135 136 137 138 139 140 141 142 143 144 145 146 147 148 149 150 151 152 153 154 155 156 157 158 159 160 161 162 163 164 165 166 167 168 169 170 171 172 173 174 175 176 177 178 179 180 181 182 183 184 185 186 187 188 189 190 191 192 193 194 195 196 197 198 0
-1 -2 3 0
1 -3 0
2 -3 0
1 2 4 0
-1 -4 0
-2 -4 0
3 4 5 0
-3 -5 0
-4 -5 0
-6 -7 8 0
6 -8 0
7 -8 0
9 10 11 0
-9 -11 0
-10 -11 0
-9 -10 12 0
9 -12 0
10 -12 0
11 12 13 0
-11 -13 0
-12 -13 0
-8 -13 14 0
8 -14 0
13 -14 0
14 12 15 0
-14 -15 0
-12 -15 0
16 1 17 0
-16 -17 0
-1 -17 0
-16 -1 18 0
16 -18 0
1 -18 0
17 18 19 0
-17 -19 0
-18 -19 0
15 -19 20 0
-15 -20 0
19 -20 0
20 18 21 0
-20 -21 0
-18 -21 0
22 1 23 0
-22 -23 0
-1 -23 0
-22 -1 24 0
22 -24 0
1 -24 0
23 24 25 0
-23 -25 0
-24 -25 0
21 -25 26 0
-21 -26 0
25 -26 0
26 24 27 0
-26 -27 0
-24 -27 0
28 1 29 0
-28 -29 0
-1 -29 0
-28 -1 30 0
28 -30 0
1 -30 0
29 30 31 0
-29 -31 0
-30 -31 0
27 -31 32 0
-27 -32 0
31 -32 0
32 30 33 0
-32 -33 0
-30 -33 0
34 1 35 0
-34 -35 0
-1 -35 0
-34 -1 36 0
34 -36 0
1 -36 0
35 36 37 0
-35 -37 0
-36 -37 0
33 -37 38 0
-33 -38 0
37 -38 0
38 36 39 0
-38 -39 0
-36 -39 0
40 1 41 0
-40 -41 0
-1 -41 0
-40 -1 42 0
40 -42 0
1 -42 0
41 42 43 0
-41 -43 0
-42 -43 0
39 -43 44 0
-39 -44 0
43 -44 0
44 42 45 0
-44 -45 0
-42 -45 0
-5 45 46 0
5 -46 0
-45 -46 0
5 -45 47 0
-5 -47 0
45 -47 0
46 47 48 0
-46 -48 0
-47 -48 0
6 7 49 0
-6 -49 0
-7 -49 0
49 8 50 0
-49 -50 0
-8 -50 0
8 13 51 0
-8 -51 0
-13 -51 0
51 14 52 0
-51 -52 0
-14 -52 0
50 52 53 0
-50 -53 0
-52 -53 0
-15 19 54 0
15 -54 0
-19 -54 0
54 20 55 0
-54 -55 0
-20 -55 0
-53 55 56 0
53 -56 0
-55 -56 0
-21 25 57 0
21 -57 0
-25 -57 0
57 26 58 0
-57 -58 0
-26 -58 0
-56 58 59 0
56 -59 0
-58 -59 0
-27 31 60 0
27 -60 0
-31 -60 0
60 32 61 0
-60 -61 0
-32 -61 0
-59 61 62 0
59 -62 0
-61 -62 0
-33 37 63 0
33 -63 0
-37 -63 0
63 38 64 0
-63 -64 0
-38 -64 0
-62 64 65 0
62 -65 0
-64 -65 0
-39 43 66 0
39 -66 0
-43 -66 0
66 44 67 0
-66 -67 0
-44 -67 0
-65 67 68 0
65 -68 0
-67 -68 0
-48 -68 69 0
48 -69 0
68 -69 0
-70 -1 71 0
70 -71 0
1 -71 0
70 1 72 0
-70 -72 0
-1 -72 0
71 72 73 0
-71 -73 0
-72 -73 0
74 75 76 0
-74 -76 0
-75 -76 0
-76 77 78 0
76 -78 0
-77 -78 0
-78 79 80 0
78 -80 0
-79 -80 0
-80 81 82 0
80 -82 0
-81 -82 0
-82 83 84 0
82 -84 0
-83 -84 0
-84 85 86 0
84 -86 0
-85 -86 0
-73 86 87 0
73 -87 0
-86 -87 0
73 -86 88 0
-73 -88 0
86 -88 0
87 88 89 0
-87 -89 0
-88 -89 0
-90 -74 91 0
90 -91 0
74 -91 0
-74 -75 92 0
74 -92 0
75 -92 0
92 76 93 0
-92 -93 0
-76 -93 0
93 94 95 0
-93 -95 0
-94 -95 0
-93 -94 96 0
93 -96 0
94 -96 0
95 96 97 0
-95 -97 0
-96 -97 0
-91 -97 98 0
91 -98 0
97 -98 0
98 96 99 0
-98 -99 0
-96 -99 0
76 -77 100 0
-76 -100 0
77 -100 0
100 78 101 0
-100 -101 0
-78 -101 0
101 102 103 0
-101 -103 0
-102 -103 0
-101 -102 104 0
101 -104 0
102 -104 0
103 104 105 0
-103 -105 0
-104 -105 0
99 -105 106 0
-99 -106 0
105 -106 0
106 104 107 0
-106 -107 0
-104 -107 0
78 -79 108 0
-78 -108 0
79 -108 0
108 80 109 0
-108 -109 0
-80 -109 0
109 110 111 0
-109 -111 0
-110 -111 0
-109 -110 112 0
109 -112 0
110 -112 0
111 112 113 0
-111 -113 0
-112 -113 0
107 -113 114 0
-107 -114 0
113 -114 0
114 112 115 0
-114 -115 0
-112 -115 0
80 -81 116 0
-80 -116 0
81 -116 0
116 82 117 0
-116 -117 0
-82 -117 0
117 118 119 0
-117 -119 0
-118 -119 0
-117 -118 120 0
117 -120 0
118 -120 0
119 120 121 0
-119 -121 0
-120 -121 0
115 -121 122 0
-115 -122 0
121 -122 0
122 120 123 0
-122 -123 0
-120 -123 0
82 -83 124 0
-82 -124 0
83 -124 0
124 84 125 0
-124 -125 0
-84 -125 0
125 6 126 0
-125 -126 0
-6 -126 0
-125 -6 127 0
125 -127 0
6 -127 0
126 127 128 0
-126 -128 0
-127 -128 0
123 -128 129 0
-123 -129 0
128 -129 0
129 127 130 0
-129 -130 0
-127 -130 0
84 -85 131 0
-84 -131 0
85 -131 0
131 86 132 0
-131 -132 0
-86 -132 0
132 9 133 0
-132 -133 0
-9 -133 0
-132 -9 134 0
132 -134 0
9 -134 0
133 134 135 0
-133 -135 0
-134 -135 0
130 -135 136 0
-130 -136 0
135 -136 0
136 134 137 0
-136 -137 0
-134 -137 0
89 137 138 0
-89 -138 0
-137 -138 0
-89 -137 139 0
89 -139 0
137 -139 0
138 139 140 0
-138 -140 0
-139 -140 0
69 140 141 0
-69 -141 0
-140 -141 0
90 74 142 0
-90 -142 0
-74 -142 0
142 91 143 0
-142 -143 0
-91 -143 0
143 -50 144 0
-143 -144 0
50 -144 0
144 52 145 0
-144 -145 0
-52 -145 0
91 97 146 0
-91 -146 0
-97 -146 0
146 98 147 0
-146 -147 0
-98 -147 0
145 147 148 0
-145 -148 0
-147 -148 0
-144 -52 149 0
144 -149 0
52 -149 0
148 149 150 0
-148 -150 0
-149 -150 0
-150 53 151 0
150 -151 0
-53 -151 0
-99 105 152 0
99 -152 0
-105 -152 0
152 106 153 0
-152 -153 0
-106 -153 0
53 -55 154 0
-53 -154 0
55 -154 0
154 56 155 0
-154 -155 0
-56 -155 0
-153 -155 156 0
153 -156 0
155 -156 0
151 156 157 0
-151 -157 0
-156 -157 0
153 155 158 0
-153 -158 0
-155 -158 0
157 158 159 0
-157 -159 0
-158 -159 0
-107 113 160 0
107 -160 0
-113 -160 0
160 114 161 0
-160 -161 0
-114 -161 0
56 -58 162 0
-56 -162 0
58 -162 0
162 59 163 0
-162 -163 0
-59 -163 0
-161 -163 164 0
161 -164 0
163 -164 0
159 164 165 0
-159 -165 0
-164 -165 0
161 163 166 0
-161 -166 0
-163 -166 0
165 166 167 0
-165 -167 0
-166 -167 0
-115 121 168 0
115 -168 0
-121 -168 0
168 122 169 0
-168 -169 0
-122 -169 0
59 -61 170 0
-59 -170 0
61 -170 0
170 62 171 0
-170 -171 0
-62 -171 0
-169 -171 172 0
169 -172 0
171 -172 0
167 172 173 0
-167 -173 0
-172 -173 0
169 171 174 0
-169 -174 0
-171 -174 0
173 174 175 0
-173 -175 0
-174 -175 0
-123 128 176 0
123 -176 0
-128 -176 0
176 129 177 0
-176 -177 0
-129 -177 0
62 -64 178 0
-62 -178 0
64 -178 0
178 65 179 0
-178 -179 0
-65 -179 0
-177 -179 180 0
177 -180 0
179 -180 0
175 180 181 0
-175 -181 0
-180 -181 0
177 179 182 0
-177 -182 0
-179 -182 0
181 182 183 0
-181 -183 0
-182 -183 0
-130 135 184 0
130 -184 0
-135 -184 0
184 136 185 0
-184 -185 0
-136 -185 0
65 -67 186 0
-65 -186 0
67 -186 0
186 68 187 0
-186 -187 0
-68 -187 0
-185 -187 188 0
185 -188 0
187 -188 0
183 188 189 0
-183 -189 0
-188 -189 0
185 187 190 0
-185 -190 0
-187 -190 0
189 190 191 0
-189 -191 0
-190 -191 0
-141 191 192 0
141 -192 0
-191 -192 0
-191 -140 193 0
191 -193 0
140 -193 0
-69 -193 194 0
69 -194 0
193 -194 0
192 194 195 0
-192 -195 0
-194 -195 0
48 68 196 0
-48 -196 0
-68 -196 0
-196 193 197 0
196 -197 0
-193 -197 0
-195 197 198 0
195 -198 0
-197 -198 0
198 0
